\ Model NCP
\ LP format - for model browsing. Use MPS format to capture full model detail.
Minimize
  0 F1
Subject To
 R0: C1 + C11 + C21 + C31 + C41 = 1
 R1: C1 + C3 + C5 + C7 + C9 = 0
 R2: C3 - C11 - C15 - C17 - C19 + C23 + C33 + C43 = 0
 R3: C5 + C15 - C21 - C23 - C27 - C29 + C35 + C45 = 0
 R4: C7 + C17 + C27 + C37 + C47 = 0
 R5: C31 + C33 + C35 + C37 + C39 = 1
 R6: C9 + C19 + C29 + C39 - C41 - C43 - C45 - C47 = 0
 R7: C2 <= 10000
 R8: C4 <= 500
 R9: C6 <= 500
 R10: C8 <= 500
 R11: C10 <= 500
 R12: C12 <= 500
 R13: C14 <= 10000
 R14: C16 <= 500
 R15: C18 <= 500
 R16: C20 <= 500
 R17: C22 <= 500
 R18: C24 <= 500
 R19: C26 <= 10000
 R20: C28 <= 500
 R21: C30 <= 500
 R22: C32 <= 500
 R23: C34 <= 500
 R24: C36 <= 500
 R25: C38 <= 10000
 R26: C40 <= 500
 R27: C42 <= 500
 R28: C44 <= 500
 R29: C46 <= 500
 R30: C48 <= 500
 R31: C50 <= 10000
 R32: - 1e+06 C1 + C2 >= -999474.3120189181
 R33: - 1e+06 C3 + C4 >= -999474.3120189181
 R34: - 1e+06 C5 + C6 >= -999474.3120189181
 R35: - 1e+06 C7 + C8 >= -999474.3120189181
 R36: - 1e+06 C9 + C10 >= -999474.3120189181
 R37: - 1e+06 C11 + C12 >= -999474.3120189181
 R38: - 1e+06 C13 + C14 >= -999474.3120189181
 R39: - 1e+06 C15 + C16 >= -999474.3120189181
 R40: - 1e+06 C17 + C18 >= -999474.3120189181
 R41: - 1e+06 C19 + C20 >= -999474.3120189181
 R42: - 1e+06 C21 + C22 >= -999474.3120189181
 R43: - 1e+06 C23 + C24 >= -999474.3120189181
 R44: - 1e+06 C25 + C26 >= -999474.3120189181
 R45: - 1e+06 C27 + C28 >= -999474.3120189181
 R46: - 1e+06 C29 + C30 >= -999474.3120189181
 R47: - 1e+06 C31 + C32 >= -999474.3120189181
 R48: - 1e+06 C33 + C34 >= -999474.3120189181
 R49: - 1e+06 C35 + C36 >= -999474.3120189181
 R50: - 1e+06 C37 + C38 >= -999474.3120189181
 R51: - 1e+06 C39 + C40 >= -999474.3120189181
 R52: - 1e+06 C41 + C42 >= -999474.3120189181
 R53: - 1e+06 C43 + C44 >= -999474.3120189181
 R54: - 1e+06 C45 + C46 >= -999474.3120189181
 R55: - 1e+06 C47 + C48 >= -999474.3120189181
 R56: - 1e+06 C49 + C50 >= -999474.3120189181
 R57: C57 = 0
 R58: - 1e+06 C1 >= -1e+06
 R59: - 1e+06 C3 - C51 + C53 >= -999999.92
 R60: - 1e+06 C5 - C51 + C55 >= -999999.92
 R61: - 1e+06 C7 - C51 + C57 >= -999999.92
 R62: - 1e+06 C9 - C51 + C59 >= -999999.92
 R63: - 1e+06 C11 + C51 - C53 >= -999999.92
 R64: - 1e+06 C13 >= -1e+06
 R65: - 1e+06 C15 - C53 + C55 >= -999999.92
 R66: - 1e+06 C17 - C53 + C57 >= -999999.92
 R67: - 1e+06 C19 - C53 + C59 >= -999999.92
 R68: - 1e+06 C21 + C51 - C55 >= -999999.92
 R69: - 1e+06 C23 + C53 - C55 >= -999999.92
 R70: - 1e+06 C25 >= -1e+06
 R71: - 1e+06 C27 - C55 + C57 >= -999999.92
 R72: - 1e+06 C29 - C55 + C59 >= -999999.92
 R73: - 1e+06 C31 + C51 - C57 >= -999999.92
 R74: - 1e+06 C33 + C53 - C57 >= -999999.92
 R75: - 1e+06 C35 + C55 - C57 >= -999999.92
 R76: - 1e+06 C37 >= -1e+06
 R77: - 1e+06 C39 - C57 + C59 >= -999999.92
 R78: - 1e+06 C41 + C51 - C59 >= -999999.92
 R79: - 1e+06 C43 + C53 - C59 >= -999999.92
 R80: - 1e+06 C45 + C55 - C59 >= -999999.92
 R81: - 1e+06 C47 + C57 - C59 >= -999999.92
 R82: - 1e+06 C49 >= -1e+06
 R83: C58 = 0
 R84: - 1e+06 C1 >= -1e+06
 R85: - 1e+06 C3 - C52 + C54 >= -999999.92
 R86: - 1e+06 C5 - C52 + C56 >= -999999.92
 R87: - 1e+06 C7 - C52 + C58 >= -999999.92
 R88: - 1e+06 C9 - C52 + C60 >= -999999.92
 R89: - 1e+06 C11 + C52 - C54 >= -999999.92
 R90: - 1e+06 C13 >= -1e+06
 R91: - 1e+06 C15 - C54 + C56 >= -999999.92
 R92: - 1e+06 C17 - C54 + C58 >= -999999.92
 R93: - 1e+06 C19 - C54 + C60 >= -999999.92
 R94: - 1e+06 C21 + C52 - C56 >= -999999.92
 R95: - 1e+06 C23 + C54 - C56 >= -999999.92
 R96: - 1e+06 C25 >= -1e+06
 R97: - 1e+06 C27 - C56 + C58 >= -999999.92
 R98: - 1e+06 C29 - C56 + C60 >= -999999.92
 R99: - 1e+06 C31 + C52 - C58 >= -999999.92
 R100: - 1e+06 C33 + C54 - C58 >= -999999.92
 R101: - 1e+06 C35 + C56 - C58 >= -999999.92
 R102: - 1e+06 C37 >= -1e+06
 R103: - 1e+06 C39 - C58 + C60 >= -999999.92
 R104: - 1e+06 C41 + C52 - C60 >= -999999.92
 R105: - 1e+06 C43 + C54 - C60 >= -999999.92
 R106: - 1e+06 C45 + C56 - C60 >= -999999.92
 R107: - 1e+06 C47 + C58 - C60 >= -999999.92
 R108: - 1e+06 C49 >= -1e+06
Bounds
 C2 <= 525.6879810819477
 C4 <= 525.6879810819477
 C6 <= 525.6879810819477
 C8 <= 525.6879810819477
 C10 <= 525.6879810819477
 C12 <= 525.6879810819477
 C14 <= 525.6879810819477
 C16 <= 525.6879810819477
 C18 <= 525.6879810819477
 C20 <= 525.6879810819477
 C22 <= 525.6879810819477
 C24 <= 525.6879810819477
 C26 <= 525.6879810819477
 C28 <= 525.6879810819477
 C30 <= 525.6879810819477
 C32 <= 525.6879810819477
 C34 <= 525.6879810819477
 C36 <= 525.6879810819477
 C38 <= 525.6879810819477
 C40 <= 525.6879810819477
 C42 <= 525.6879810819477
 C44 <= 525.6879810819477
 C46 <= 525.6879810819477
 C48 <= 525.6879810819477
 C50 <= 525.6879810819477
 C51 <= 0.4899692684323876
 C52 <= 0.5137394134893116
 C53 <= 0.4899692684323876
 C54 <= 0.5137394134893116
 C55 <= 0.4899692684323876
 C56 <= 0.5137394134893116
 C57 <= 0.4899692684323876
 C58 <= 0.5137394134893116
 C59 <= 0.4899692684323876
 C60 <= 0.5137394134893116
Binaries
 F1 C1 C3 C5 C7 C9 C11 C13 C15 C17 C19 C21 C23 C25 C27 C29 C31 C33 C35 C37
 C39 C41 C43 C45 C47 C49
End
